(set-info :status sat) ; swine result
(set-logic ALL)
(declare-fun i1 () Int)
(declare-fun it1100 () Int)
(declare-fun it15 () Int)
(declare-fun it1101 () Int)
(declare-fun it14 () Int)
(declare-fun it1102 () Int)
(declare-fun it1103 () Int)
(declare-fun it13 () Int)
(declare-fun bt1173 () Bool)
(declare-fun bt1174 () Bool)
(declare-fun bt1175 () Bool)
(declare-fun bt1176 () Bool)
(declare-fun it17 () Int)
(declare-fun it16 () Int)
(declare-fun it18 () Int)
(declare-fun bt25 () Bool)
(declare-fun bt28 () Bool)
(declare-fun bt26 () Bool)
(declare-fun bt27 () Bool)
(declare-fun it1107 () Int)
(declare-fun it1108 () Int)
(declare-fun it1109 () Int)
(declare-fun it1110 () Int)
(declare-fun bt1177 () Bool)
(declare-fun bt1178 () Bool)
(declare-fun bt1179 () Bool)
(declare-fun bt1180 () Bool)
(declare-fun it155 () Int)
(declare-fun it1116 () Int)
(declare-fun it1117 () Int)
(declare-fun it1118 () Int)
(declare-fun it1119 () Int)
(declare-fun bt1185 () Bool)
(declare-fun bt1186 () Bool)
(declare-fun bt1187 () Bool)
(declare-fun bt1188 () Bool)
(declare-fun it1111 () Int)
(declare-fun bt1184 () Bool)
(declare-fun bt1183 () Bool)
(declare-fun it1113 () Int)
(declare-fun bt1182 () Bool)
(declare-fun bt1181 () Bool)
(declare-fun it1112 () Int)
(assert (= (+ i1 (- 1)) 0))
(assert (= (+ it1100 (- 2)) 0))
(assert (= (+ it1101 (* it15 (- 1))) 0))
(assert (= (+ it1102 (* it14 (- 1))) 0))
(assert (= (+ (* it13 (- 1)) it1103) 0))
(assert (or (not bt1173) (and false bt1173)))
(assert (or bt1174 (and false (not bt1174))))
(assert (or (not bt1175) (and false bt1175)))
(assert (or (not bt1176) (and false bt1176)))
(assert (and bt27
     (not bt26)
     (not bt28)
     (not bt25)
     (= (+ it18 (- 1)) 0)
     bt1174
     (= (+ (* it16 (- 1)) it1103) 0)
     (not bt1176)
     (= (+ it1102 (* it17 (- 1))) 0)
     (not bt1173)
     (= (+ it1100 (- 2)) 0)
     (not bt1175)))
(assert (= (+ it1107 (- 2)) 0))
(assert (= (+ (* it18 (- 1)) it1108) 0))
(assert (= (+ it1109 (* it17 (- 1))) 0))
(assert (= (+ (* it16 (- 1)) it1110) 0))
(assert (or (and bt27 bt1177) (and (not bt27) (not bt1177))))
(assert (or (and (not bt28) (not bt1178)) (and bt28 bt1178)))
(assert (or (and (not bt26) (not bt1179)) (and bt26 bt1179)))
(assert (or (and (not bt25) (not bt1180)) (and bt25 bt1180)))
(assert (let ((a!1 (+ (* (+ 0 it1108) (exp 2 (+ it155 (- 1))) (+ 0 (- 1)))
              (+ 0 it1110))))
  (and (not bt1179)
       (not bt1178)
       (>= (+ it1107 (- 2)) 0)
       (>= (+ (* it1107 (- 1)) 2) 0)
       bt1177
       (> it1109 0)
       (> (+ (* it1108 (- 1)) it1110) 0)
       (> a!1 (+ 0 0))
       (>= (+ it155 (- 1)) 0)
       (not bt1180))))
(assert (= (+ it1116 (* it1107 (- 1))) 0))
(assert (= (+ (+ 0 it1117) (* (+ 0 it1108) (exp 2 it155) (+ 0 (- 1))))
   (+ 0 0)))
(assert (= (+ it1118 (* it1109 (- 1))) 0))
(assert (= (+ it1119 (* it1110 (- 1))) 0))
(assert (or (and false (not bt1185)) bt1185))
(assert (or (not bt1186) (and false bt1186)))
(assert (or (not bt1187) (and false bt1187)))
(assert (or (not bt1188) (and false bt1188)))
(assert (or (<= (+ (* it1117 (- 1)) it1119) 0)
    (distinct (+ it1118 (* it1112 (- 1))) 0)
    (not bt1185)
    (<= it1118 0)
    bt1186
    bt1187
    bt1188
    (not bt1181)
    (distinct (+ it1116 (- 2)) 0)
    (not bt1182)
    (distinct (+ it1119 (* it1113 (- 1))) 0)
    bt1183
    bt1184
    (distinct (+ (* it1111 (- 1)) it1117) 0)))
(assert (let ((a!1 (and (not bt1183)
                (not bt1182)
                (= (+ it1119 (* it1113 (- 1))) 0)
                bt1181
                (= (+ (* it1111 (- 1)) it1117) 0)
                (= (+ it1118 (* it1112 (- 1))) 0)
                bt1184))
      (a!2 (and (not bt1182)
                (= (+ it1119 (* it1113 (- 1))) 0)
                bt1181
                (not bt1184)))
      (a!4 (and (and (not bt1183) (not bt1181))
                (not bt1182)
                (= (+ it1119 (* it1113 (- 1))) 0)))
      (a!6 (and (not bt1181)
                (= (+ it1119 (* it1113 (- 1))) 0)
                bt1182
                (not bt1184)
                (= (+ (* it1111 (- 1)) it1117) 0)
                (= (+ it1118 (* it1112 (- 1))) 0)
                bt1183))
      (a!7 (and (not bt1181)
                (not bt1182)
                (= (+ it1119 (* it1113 (- 1))) 0)
                (not bt1184)
                (= (+ (* it1111 (- 1)) it1117) 0)
                (= (+ it1118 (* it1112 (- 1))) 0)
                bt1183))
      (a!8 (and (= (+ it1119 (* it1113 (- 1))) 0)
                bt1181
                bt1182
                (not bt1184)
                (= (+ (* it1111 (- 1)) (* it1117 3)) 0)
                (= (+ it1118 (* it1112 (- 1))) 0)
                bt1183))
      (a!9 (and (and (not bt1183) (not bt1181))
                (= (+ it1119 (* it1113 (- 1))) 0)
                bt1182))
      (a!12 (and (not bt1183) (= (+ it1119 (* it1113 (- 1))) 0) bt1181 bt1182)))
(let ((a!3 (and a!2
                (= (+ (* it1111 (- 1)) it1117) 0)
                (= (+ it1118 (* it1112 (- 1))) 0)
                bt1183))
      (a!5 (and a!4
                (not bt1184)
                (= (+ (* it1111 (- 1)) it1117) 0)
                (= (+ it1118 (* it1112 (- 1))) 0)))
      (a!10 (and a!9
                 (= (+ (* it1111 (- 1)) it1117) 0)
                 (= (+ it1118 (* it1112 (- 1))) 0)
                 bt1184))
      (a!11 (and a!2
                 (= (+ (* it1111 (- 1)) (* it1117 2)) 0)
                 (= (+ it1118 (* it1112 (- 1))) 0)
                 bt1183))
      (a!13 (and a!12
                 (= (+ (* it1111 (- 1)) it1117) 0)
                 (= (+ it1118 (* it1112 (- 1))) 0)
                 bt1184))
      (a!14 (and (and a!9 (not bt1184))
                 (= (+ it1111 (- 1)) 0)
                 (= (+ it1118 (* it1112 (- 1))) 0)))
      (a!15 (and a!4
                 (= (+ (* it1111 (- 1)) it1117) 0)
                 (= (+ it1118 (* it1112 (- 1))) 0)
                 bt1184))
      (a!17 (and (and a!9 (not bt1184))
                 (= (+ (* it1111 (- 1)) it1117) 0)
                 (= (+ it1118 (* it1112 (- 1))) 0)))
      (a!18 (and a!12
                 (not bt1184)
                 (= (+ (* it1111 (- 1)) it1117) 0)
                 (= (+ it1118 (* it1112 (- 1))) 0))))
(let ((a!16 (or (> (+ (* it1117 (- 1)) it1119) 0)
                bt1186
                bt1187
                bt1188
                (not bt1185)
                a!15))
      (a!19 (or a!18
                bt1186
                bt1187
                bt1188
                (not bt1185)
                (<= (+ (* it1117 (- 1)) it1119) 0))))
  (and (or a!1 (not bt1188) (<= it1117 0) bt1186 bt1187 bt1185)
       (or (not bt1187) bt1188 (not bt1185) (not bt1186) a!3)
       (or (not bt1188) a!5 bt1186 bt1187 (not bt1185))
       (or a!5 bt1186 bt1187 bt1188 bt1185)
       (or (> it1118 0) bt1187 bt1188 a!6 (not bt1185) (not bt1186))
       (or (<= it1118 0) bt1187 bt1188 (not bt1185) (not bt1186) a!7)
       (or (not bt1187) bt1186 bt1188 a!8 (not bt1185))
       (or (or (not bt1188) bt1187) bt1185 (not bt1186) a!10)
       (or a!11 (not bt1187) bt1186 bt1188 bt1185)
       (or (not bt1188) (> it1117 0) bt1186 bt1187 bt1185 a!13)
       (or a!14 bt1187 bt1188 bt1185 (not bt1186))
       a!16
       (= (+ it1116 (- 2)) 0)
       (or a!17 (not bt1187) bt1188 bt1185 (not bt1186))
       (or (or (not bt1188) bt1187) (not bt1185) (not bt1186) a!13)
       a!19)))))
(check-sat)
